data;
set WEIGHTS := x0 x1 x2 x3 x4 x5 x6 x7 x8 x9 x10 x11 x12 x13 x14 x15 x16 x17 x18 x19;
param:  cost :=
  x0  747951
  x1  523383
  x2  998136
  x3  236397
  x4  69175
  x5  756165
  x6  805023
  x7  137203
  x8  615970
  x9  114448
  x10  802088
  x11  344431
  x12  957657
  x13  977606
  x14  382009
  x15  783590
  x16  243885
  x17  765080
  x18  521372
  x19  764828;
param cap := 5000000;